21 = ndim
48 = nblocks
17 1 1 1 1 1 1 1 1 1 1 1 1 1 1 1 1 1 1 1 1 1 1 1 1 1 1 1 1 1 1 1 1 1 1 1 1 1 1 1 1 1 1 1 1 1 1 1 = blockstruct
1.0, 0.0, 0.0, 0.0, 0.0, 0.0, 0.0, 0.0, 0.0, 0.0, 0.0, 0.0, 0.0, 0.0, 0.0, 0.0, 0.0, 0.0, 0.0, 0.0, 0.0 = objcoeffs
0 1 1 1 7.59759141152e+65
0 1 1 2 1.13984666793e+33
0 1 1 3 -1.25782959932e+33
0 1 1 4 -2.70925893914e+31
0 1 1 5 -4.58628652536e+30
0 1 1 6 3.18155412328e+32
0 1 1 7 -4.06182200248e+31
0 1 1 8 -1.40677064603e+33
0 1 1 9 -3.5741312113e+32
0 1 1 10 -3.87954358592e+32
0 1 1 11 -3.17308665903e+34
0 1 1 12 -4.7247260353e+32
0 1 1 13 -6.75867458374e+31
0 1 1 14 -6.75867458374e+31
0 1 1 15 -3.00872533569e+34
0 1 1 16 9.23678678056e+32
0 1 1 17 3.51094049035e+32
0 1 2 2 -1.0
0 1 3 3 -1.0
0 1 4 4 -1.0
0 1 5 5 -1.0
0 1 6 6 -1.0
0 1 7 7 -1.0
0 1 8 8 -1.0
0 1 9 9 -1.0
0 1 10 10 -1.0
0 1 11 11 -1.0
0 1 12 12 -1.0
0 1 13 13 -1.0
0 1 14 14 -1.0
0 1 15 15 -1.0
0 1 16 16 -1.0
0 1 17 17 -1.0
0 2 1 1 1e-06
0 3 1 1 1e-06
0 4 1 1 1e-06
0 5 1 1 1e-06
0 6 1 1 1e-06
0 7 1 1 -15.138999
0 8 1 1 14.939001
0 9 1 1 1.383051
0 10 1 1 -1.396949
0 11 1 1 1.311411
0 12 1 1 -1.324589
0 13 1 1 0.816896
0 14 1 1 -0.825104
0 15 1 1 0.765156
0 16 1 1 -0.772844
0 17 1 1 0.683566
0 18 1 1 -0.690434
0 19 1 1 1e-06
0 20 1 1 1e-06
0 21 1 1 1e-06
0 22 1 1 1e-06
0 23 1 1 1e-06
0 24 1 1 1e-06
0 25 1 1 1e-06
0 26 1 1 1e-06
0 27 1 1 1e-06
0 28 1 1 1e-06
0 29 1 1 1e-06
0 30 1 1 1e-06
0 31 1 1 1e-06
0 32 1 1 1e-06
0 33 1 1 1e-06
0 34 1 1 1e-06
0 35 1 1 1e-06
0 36 1 1 1e-06
0 37 1 1 1e-06
0 38 1 1 1e-06
0 39 1 1 1e-06
0 40 1 1 1e-06
0 41 1 1 1e-06
0 42 1 1 1e-06
0 43 1 1 1e-06
0 44 1 1 1e-06
0 45 1 1 1e-06
0 46 1 1 1e-06
0 47 1 1 1e-06
0 48 1 1 1e-06
1 1 1 1 1.0
2 1 1 11 -2.28279615758e+34
2 2 1 1 1.0
2 7 1 1 -1.0
2 8 1 1 1.0
2 9 1 1 1.0
2 10 1 1 -1.0
2 19 1 1 0.0852150991559
2 20 1 1 0.0853551030159
2 21 1 1 0.0756699964404
2 22 1 1 0.05610819906
2 23 1 1 0.0848226025701
2 24 1 1 0.0850974991918
3 1 1 12 -2.28279615758e+34
3 19 1 1 1.0
3 20 1 1 -1.0
4 1 1 13 -2.28279615758e+34
4 21 1 1 1.0
4 22 1 1 -1.0
5 1 1 14 -2.28279615758e+34
5 23 1 1 1.0
5 24 1 1 -1.0
6 1 1 15 -2.28279615758e+34
6 3 1 1 1.0
6 7 1 1 -1.0
6 8 1 1 1.0
6 11 1 1 1.0
6 12 1 1 -1.0
6 25 1 1 0.0364000014961
6 26 1 1 0.0380599983037
6 27 1 1 0.11400000006
6 28 1 1 0.105999998748
6 29 1 1 0.0399499982595
6 30 1 1 0.0499899983406
7 1 1 2 14.5977985599
7 1 1 3 -8.85772303061
7 1 1 4 -2.37787524738
7 1 1 5 -1.53750269392
7 1 1 6 11.0239376091
7 1 1 7 -7.90354226865
7 1 1 8 -22.2040157316
7 25 1 1 1.0
7 26 1 1 -1.0
8 1 1 16 -2.28279615758e+34
8 27 1 1 1.0
8 28 1 1 -1.0
9 1 1 2 -7.26533232581
9 1 1 3 15.3170793302
9 1 1 4 2.14664874862
9 1 1 5 1.48955724134
9 1 1 6 -13.2006572337
9 1 1 7 1.27529070884
9 1 1 8 18.6131932542
9 1 1 9 -11.4707185835
9 29 1 1 1.0
9 30 1 1 -1.0
10 1 1 2 -1.12612648303
10 1 1 3 2.37414723826
10 1 1 4 0.332730547919
10 1 1 5 0.230881366775
10 1 1 6 -2.04610182131
10 1 1 7 0.197670055047
10 1 1 8 2.88504488401
10 1 1 9 -1.77796133706
10 4 1 1 1.0
10 7 1 1 -1.0
10 8 1 1 1.0
10 13 1 1 1.0
10 14 1 1 -1.0
10 31 1 1 0.0320999994874
10 32 1 1 0.0322099998593
10 33 1 1 0.107539996505
10 34 1 1 0.0844900012016
10 35 1 1 0.0465499982238
10 36 1 1 0.0365599989891
11 1 1 2 -30.9254107697
11 1 1 3 1.89267869552
11 1 1 4 2.29779459944
11 1 1 5 1.38892593449
11 1 1 6 -10.4368850355
11 1 1 7 20.2807409001
11 31 1 1 1.0
11 32 1 1 -1.0
12 1 1 10 -2.28279615758e+34
12 33 1 1 1.0
12 34 1 1 -1.0
13 1 1 2 13.856367033
13 1 1 3 -36.3820235314
13 1 1 4 -3.06579538283
13 1 1 5 -2.15800698458
13 1 1 6 28.8500940664
13 35 1 1 1.0
13 36 1 1 -1.0
14 1 1 2 0.744483072008
14 1 1 3 -2.53742593627
14 1 1 4 -0.0811518324166
14 1 1 5 -0.0604495786183
14 1 1 6 1.84866088064
14 1 1 7 0.197670049327
14 1 1 8 2.88504480053
14 1 1 9 -1.77796128561
14 5 1 1 1.0
14 7 1 1 -1.0
14 8 1 1 1.0
14 15 1 1 1.0
14 16 1 1 -1.0
14 37 1 1 0.0333399996161
14 38 1 1 0.0336100012064
14 39 1 1 0.0620100013912
14 40 1 1 0.0548200011253
14 41 1 1 0.0593600012362
14 42 1 1 0.039390001446
15 1 1 2 3.06150750268
15 1 1 3 -55.3242411917
15 37 1 1 1.0
15 38 1 1 -1.0
16 1 1 17 -2.28279615758e+34
16 39 1 1 1.0
16 40 1 1 -1.0
17 1 1 2 52.0002222639
17 41 1 1 1.0
17 42 1 1 -1.0
18 1 1 2 7.4983890206
18 1 1 3 -2.42677735894
18 1 1 4 -0.0811518031088
18 1 1 5 -0.0604495582254
18 1 1 6 1.8486606821
18 1 1 7 0.197670063402
18 1 1 8 2.88504500595
18 1 1 9 -1.77796141221
18 6 1 1 1.0
18 7 1 1 -1.0
18 8 1 1 1.0
18 17 1 1 1.0
18 18 1 1 -1.0
18 43 1 1 0.0266699995846
18 44 1 1 0.0265299994498
18 45 1 1 0.0290699992329
18 46 1 1 0.0116600003093
18 47 1 1 0.0481700003147
18 48 1 1 0.0482000000775
19 1 1 2 -2.92839101261
19 1 1 3 49.7372198359
19 1 1 4 19.9521907611
19 1 1 5 -9.13040931104
19 43 1 1 1.0
19 44 1 1 -1.0
20 1 1 2 -3.07239031295
20 1 1 3 21.2325498449
20 1 1 4 -23.3966471926
20 45 1 1 1.0
20 46 1 1 -1.0
21 1 1 2 52.0002222639
21 47 1 1 1.0
21 48 1 1 -1.0
